WARNING: for repeatability, setting FPU to use double precision
============================[ Problem Statistics ]=============================
|                                                                             |
|  Number of variables:        232611                                         |
|  Number of clauses:          535019                                         |
|  Parse time:                   0.18 s                                       |
|                                                                             |
============================[ Search Statistics ]==============================
| Conflicts |          ORIGINAL         |          LEARNT          | Progress |
|           |    Vars  Clauses Literals |    Limit  Clauses Lit/Cl |          |
===============================================================================
|       100 |  127942   512124  1151590 |   187778      100     13 | 44.997 % |
|       250 |  127942   512124  1151590 |   206556      250     34 | 44.997 % |
|       475 |  127942   512124  1151590 |   227212      475     37 | 44.997 % |
|       812 |  127936   512098  1151532 |   249933      810     33 | 45.000 % |
===============================================================================
restarts              : 7
conflicts             : 877            (1471 /sec)
decisions             : 16928          (0.00 % random) (28401 /sec)
propagations          : 2672704        (4484124 /sec)
conflict literals     : 28964          (5.94 % deleted)
Memory used           : 58.00 MB
CPU time              : 0.596037 s

SATISFIABLE
